22	0
21	1
19	2
16	3
23	4
27	5
20	6
30	7
54	8
26	9
24	10
34	11
28	12
33	13
25	9
17	8
14	3
55	13
49	2
32	11
31	14
15	10
29	0
74	4
12	7
79	7
66	9
73	1
80	8
77	0
78	2
8	13
2	0
13	11
4	12
11	5
10	14
1	3
57	12
36	5
70	6
69	14
40	15
56	10
46	7
37	16
51	3
68	17
50	9
38	18
44	1
41	11
71	15
63	13
47	18
39	5
35	0
48	4
45	11
53	4
58	16
59	18
52	14
64	5
42	2
72	10
60	8
18	8
67	4
61	2
62	4
76	14
6	9
3	4
75	6
81	3
65	3
7	2
43	1
5	2
9	1
